Optimal - objective value 11.00000000
      0 x_0_0                       1                       0
      2 x_1_1                       1                       0
      5 x_2_2                       1                       0
      7 x_3_1                       1                       0
     10 x_4_0                       1                       0
     20 x_5_5                       1                       0
     22 x_6_1                       1                       0
     35 x_7_7                       1                       0
     44 x_8_8                       1                       1
     54 x_9_9                       1                       1
     65 x_10_10                     1                       1
     77 x_11_11                     1                       0
     89 x_12_11                     1                       0
    100 x_13_9                      1                       0
    119 x_14_14                     1                       0
    131 x_15_11                     1                      -1
    150 x_16_14                     1                       0
    170 x_17_17                     1                       0
    182 x_18_11                     1                      -1
    200 x_19_10                     1                      -1
    220 x_20_10                     1                       0
    236 x_21_5                      1                       0
    255 x_22_2                      1                      -1
    283 x_23_7                      1                       0
    307 x_24_7                      1                      -1
    326 x_25_1                      1                      -1
    365 x_26_14                     1                      -1
    395 x_27_17                     1                       0
    420 x_28_14                     1                       0
    443 x_29_8                      1                       0
    467 x_30_2                      1                       0
    498 x_31_2                      1                       0
    537 x_32_9                      1                       0
    561 x_33_0                      1                       0
    602 x_34_7                      1                       0
    641 x_35_11                     1                       0
    674 x_36_8                      1                      -1
    711 x_37_8                      1                       0
    749 x_38_8                      1                       0
    797 x_39_17                     1                       0
    837 x_40_17                     1                       0
    870 x_41_9                      1                       0
    917 x_42_14                     1                       0
    956 x_43_10                     1                       0
   1004 x_44_14                     1                       0
   1040 x_45_5                      1                       0
   1088 x_46_7                      1                       0
   1138 x_47_10                     1                       0
   1176 x_48_0                      1                       0
   1233 x_49_8                      1                       0
   1276 x_50_1                      1                       0
   1326 x_51_0                      1                       0
   1387 x_52_9                      1                       0
   1445 x_53_14                     1                       0
   1496 x_54_11                     1                       0
   1547 x_55_7                      1                       0
